c nIsolatedPIs 0
c maxPI 32
p cnf 268 709
c gate 33 8 -24 0
8 -33 0
-24 -33 0
-8 24 33 0
c gate 34 9 -25 0
9 -34 0
-25 -34 0
-9 25 34 0
c gate 35 -33 -34 0
-33 -35 0
-34 -35 0
33 34 35 0
c gate 36 -10 26 0
-10 -36 0
26 -36 0
10 -26 36 0
c gate 37 10 -26 0
10 -37 0
-26 -37 0
-10 26 37 0
c gate 38 -36 -37 0
-36 -38 0
-37 -38 0
36 37 38 0
c gate 39 -35 38 0
-35 -39 0
38 -39 0
35 -38 39 0
c gate 40 35 -38 0
35 -40 0
-38 -40 0
-35 38 40 0
c gate 41 -39 -40 0
-39 -41 0
-40 -41 0
39 40 41 0
c gate 42 -9 25 0
-9 -42 0
25 -42 0
9 -25 42 0
c gate 43 7 -23 0
7 -43 0
-23 -43 0
-7 23 43 0
c gate 44 6 -22 0
6 -44 0
-22 -44 0
-6 22 44 0
c gate 45 5 -21 0
5 -45 0
-21 -45 0
-5 21 45 0
c gate 46 -3 19 0
-3 -46 0
19 -46 0
3 -19 46 0
c gate 47 -2 18 0
-2 -47 0
18 -47 0
2 -18 47 0
c gate 48 -1 17 0
-1 -48 0
17 -48 0
1 -17 48 0
c gate 49 -47 -48 0
-47 -49 0
-48 -49 0
47 48 49 0
c gate 50 2 -18 0
2 -50 0
-18 -50 0
-2 18 50 0
c gate 51 3 -19 0
3 -51 0
-19 -51 0
-3 19 51 0
c gate 52 -50 -51 0
-50 -52 0
-51 -52 0
50 51 52 0
c gate 53 -49 52 0
-49 -53 0
52 -53 0
49 -52 53 0
c gate 54 -46 -53 0
-46 -54 0
-53 -54 0
46 53 54 0
c gate 55 4 -20 0
4 -55 0
-20 -55 0
-4 20 55 0
c gate 56 -54 -55 0
-54 -56 0
-55 -56 0
54 55 56 0
c gate 57 -4 20 0
-4 -57 0
20 -57 0
4 -20 57 0
c gate 58 -56 -57 0
-56 -58 0
-57 -58 0
56 57 58 0
c gate 59 -45 -58 0
-45 -59 0
-58 -59 0
45 58 59 0
c gate 60 -6 22 0
-6 -60 0
22 -60 0
6 -22 60 0
c gate 61 -44 -60 0
-44 -61 0
-60 -61 0
44 60 61 0
c gate 62 -5 21 0
-5 -62 0
21 -62 0
5 -21 62 0
c gate 63 61 -62 0
61 -63 0
-62 -63 0
-61 62 63 0
c gate 64 -59 63 0
-59 -64 0
63 -64 0
59 -63 64 0
c gate 65 -44 -64 0
-44 -65 0
-64 -65 0
44 64 65 0
c gate 66 -7 23 0
-7 -66 0
23 -66 0
7 -23 66 0
c gate 67 -43 -66 0
-43 -67 0
-66 -67 0
43 66 67 0
c gate 68 -65 67 0
-65 -68 0
67 -68 0
65 -67 68 0
c gate 69 -43 -68 0
-43 -69 0
-68 -69 0
43 68 69 0
c gate 70 8 24 0
8 -70 0
24 -70 0
-8 -24 70 0
c gate 71 -8 -24 0
-8 -71 0
-24 -71 0
8 24 71 0
c gate 72 -70 -71 0
-70 -72 0
-71 -72 0
70 71 72 0
c gate 73 -69 -72 0
-69 -73 0
-72 -73 0
69 72 73 0
c gate 74 35 -73 0
35 -74 0
-73 -74 0
-35 73 74 0
c gate 75 -42 -74 0
-42 -75 0
-74 -75 0
42 74 75 0
c gate 76 38 -75 0
38 -76 0
-75 -76 0
-38 75 76 0
c gate 77 -38 75 0
-38 -77 0
75 -77 0
38 -75 77 0
c gate 78 -76 -77 0
-76 -78 0
-77 -78 0
76 77 78 0
c gate 79 41 78 0
41 -79 0
78 -79 0
-41 -78 79 0
c gate 80 -41 -78 0
-41 -80 0
-78 -80 0
41 78 80 0
c gate 81 -79 -80 0
-79 -81 0
-80 -81 0
79 80 81 0
c gate 82 -9 -25 0
-9 -82 0
-25 -82 0
9 25 82 0
c gate 83 9 25 0
9 -83 0
25 -83 0
-9 -25 83 0
c gate 84 -82 -83 0
-82 -84 0
-83 -84 0
82 83 84 0
c gate 85 73 -84 0
73 -85 0
-84 -85 0
-73 84 85 0
c gate 86 -68 -73 0
-68 -86 0
-73 -86 0
68 73 86 0
c gate 87 5 21 0
5 -87 0
21 -87 0
-5 -21 87 0
c gate 88 -45 -62 0
-45 -88 0
-62 -88 0
45 62 88 0
c gate 89 -87 88 0
-87 -89 0
88 -89 0
87 -88 89 0
c gate 90 -58 89 0
-58 -90 0
89 -90 0
58 -89 90 0
c gate 91 -61 90 0
-61 -91 0
90 -91 0
61 -90 91 0
c gate 92 -64 -91 0
-64 -92 0
-91 -92 0
64 91 92 0
c gate 93 -68 92 0
-68 -93 0
92 -93 0
68 -92 93 0
c gate 94 -89 93 0
-89 -94 0
93 -94 0
89 -93 94 0
c gate 95 16 -32 0
16 -95 0
-32 -95 0
-16 32 95 0
c gate 96 -16 32 0
-16 -96 0
32 -96 0
16 -32 96 0
c gate 97 -95 -96 0
-95 -97 0
-96 -97 0
95 96 97 0
c gate 98 15 31 0
15 -98 0
31 -98 0
-15 -31 98 0
c gate 99 -15 -31 0
-15 -99 0
-31 -99 0
15 31 99 0
c gate 100 -98 -99 0
-98 -100 0
-99 -100 0
98 99 100 0
c gate 101 -14 -30 0
-14 -101 0
-30 -101 0
14 30 101 0
c gate 102 14 30 0
14 -102 0
30 -102 0
-14 -30 102 0
c gate 103 -101 -102 0
-101 -103 0
-102 -103 0
101 102 103 0
c gate 104 -13 -29 0
-13 -104 0
-29 -104 0
13 29 104 0
c gate 105 13 29 0
13 -105 0
29 -105 0
-13 -29 105 0
c gate 106 -12 -28 0
-12 -106 0
-28 -106 0
12 28 106 0
c gate 107 -6 -22 0
-6 -107 0
-22 -107 0
6 22 107 0
c gate 108 4 20 0
4 -108 0
20 -108 0
-4 -20 108 0
c gate 109 -4 -20 0
-4 -109 0
-20 -109 0
4 20 109 0
c gate 110 3 19 0
3 -110 0
19 -110 0
-3 -19 110 0
c gate 111 1 17 0
1 -111 0
17 -111 0
-1 -17 111 0
c gate 112 2 18 0
2 -112 0
18 -112 0
-2 -18 112 0
c gate 113 -111 -112 0
-111 -113 0
-112 -113 0
111 112 113 0
c gate 114 -46 -51 0
-46 -114 0
-51 -114 0
46 51 114 0
c gate 115 -113 -114 0
-113 -115 0
-114 -115 0
113 114 115 0
c gate 116 -110 -115 0
-110 -116 0
-115 -116 0
110 115 116 0
c gate 117 -109 -116 0
-109 -117 0
-116 -117 0
109 116 117 0
c gate 118 -108 -117 0
-108 -118 0
-117 -118 0
108 117 118 0
c gate 119 -2 -18 0
-2 -119 0
-18 -119 0
2 18 119 0
c gate 120 -110 119 0
-110 -120 0
119 -120 0
110 -119 120 0
c gate 121 -108 120 0
-108 -121 0
120 -121 0
108 -120 121 0
c gate 122 -118 -121 0
-118 -122 0
-121 -122 0
118 121 122 0
c gate 123 -88 122 0
-88 -123 0
122 -123 0
88 -122 123 0
c gate 124 -87 -123 0
-87 -124 0
-123 -124 0
87 123 124 0
c gate 125 -61 124 0
-61 -125 0
124 -125 0
61 -124 125 0
c gate 126 -107 -125 0
-107 -126 0
-125 -126 0
107 125 126 0
c gate 127 -67 -126 0
-67 -127 0
-126 -127 0
67 126 127 0
c gate 128 -7 -23 0
-7 -128 0
-23 -128 0
7 23 128 0
c gate 129 -71 -128 0
-71 -129 0
-128 -129 0
71 128 129 0
c gate 130 -127 129 0
-127 -130 0
129 -130 0
127 -129 130 0
c gate 131 -70 -130 0
-70 -131 0
-130 -131 0
70 130 131 0
c gate 132 -82 -131 0
-82 -132 0
-131 -132 0
82 131 132 0
c gate 133 10 26 0
10 -133 0
26 -133 0
-10 -26 133 0
c gate 134 -83 -133 0
-83 -134 0
-133 -134 0
83 133 134 0
c gate 135 -132 134 0
-132 -135 0
134 -135 0
132 -134 135 0
c gate 136 -11 -27 0
-11 -136 0
-27 -136 0
11 27 136 0
c gate 137 -10 -26 0
-10 -137 0
-26 -137 0
10 26 137 0
c gate 138 -136 -137 0
-136 -138 0
-137 -138 0
136 137 138 0
c gate 139 -135 138 0
-135 -139 0
138 -139 0
135 -138 139 0
c gate 140 11 27 0
11 -140 0
27 -140 0
-11 -27 140 0
c gate 141 12 28 0
12 -141 0
28 -141 0
-12 -28 141 0
c gate 142 -140 -141 0
-140 -142 0
-141 -142 0
140 141 142 0
c gate 143 -139 142 0
-139 -143 0
142 -143 0
139 -142 143 0
c gate 144 -106 -143 0
-106 -144 0
-143 -144 0
106 143 144 0
c gate 145 -105 -144 0
-105 -145 0
-144 -145 0
105 144 145 0
c gate 146 -104 -145 0
-104 -146 0
-145 -146 0
104 145 146 0
c gate 147 103 -146 0
103 -147 0
-146 -147 0
-103 146 147 0
c gate 148 -101 -147 0
-101 -148 0
-147 -148 0
101 147 148 0
c gate 149 100 148 0
100 -149 0
148 -149 0
-100 -148 149 0
c gate 150 -98 -149 0
-98 -150 0
-149 -150 0
98 149 150 0
c gate 151 -97 150 0
-97 -151 0
150 -151 0
97 -150 151 0
c gate 152 97 -150 0
97 -152 0
-150 -152 0
-97 150 152 0
c gate 153 -151 -152 0
-151 -153 0
-152 -153 0
151 152 153 0
c gate 154 -105 -141 0
-105 -154 0
-141 -154 0
105 141 154 0
c gate 155 103 -154 0
103 -155 0
-154 -155 0
-103 154 155 0
c gate 156 -102 -155 0
-102 -156 0
-155 -156 0
102 155 156 0
c gate 157 -98 156 0
-98 -157 0
156 -157 0
98 -156 157 0
c gate 158 97 157 0
97 -158 0
157 -158 0
-97 -157 158 0
c gate 159 -97 -157 0
-97 -159 0
-157 -159 0
97 157 159 0
c gate 160 -158 -159 0
-158 -160 0
-159 -160 0
158 159 160 0
c gate 161 153 160 0
153 -161 0
160 -161 0
-153 -160 161 0
c gate 162 -153 -160 0
-153 -162 0
-160 -162 0
153 160 162 0
c gate 163 -161 -162 0
-161 -163 0
-162 -163 0
161 162 163 0
c gate 164 -97 -163 0
-97 -164 0
-163 -164 0
97 163 164 0
c gate 165 94 -164 0
94 -165 0
-164 -165 0
-94 164 165 0
c gate 166 72 127 0
72 -166 0
127 -166 0
-72 -127 166 0
c gate 167 -47 111 0
-47 -167 0
111 -167 0
47 -111 167 0
c gate 168 -50 167 0
-50 -168 0
167 -168 0
50 -167 168 0
c gate 169 88 -122 0
88 -169 0
-122 -169 0
-88 122 169 0
c gate 170 -123 -169 0
-123 -170 0
-169 -170 0
123 169 170 0
c gate 171 87 -118 0
87 -171 0
-118 -171 0
-87 118 171 0
c gate 172 -87 118 0
-87 -172 0
118 -172 0
87 -118 172 0
c gate 173 -171 -172 0
-171 -173 0
-172 -173 0
171 172 173 0
c gate 174 170 173 0
170 -174 0
173 -174 0
-170 -173 174 0
c gate 175 -170 -173 0
-170 -175 0
-173 -175 0
170 173 175 0
c gate 176 -174 -175 0
-174 -176 0
-175 -176 0
174 175 176 0
c gate 177 111 119 0
111 -177 0
119 -177 0
-111 -119 177 0
c gate 178 114 177 0
114 -178 0
177 -178 0
-114 -177 178 0
c gate 179 -108 -109 0
-108 -179 0
-109 -179 0
108 109 179 0
c gate 180 120 -179 0
120 -180 0
-179 -180 0
-120 179 180 0
c gate 181 -116 180 0
-116 -181 0
180 -181 0
116 -180 181 0
c gate 182 -178 -181 0
-178 -182 0
-181 -182 0
178 181 182 0
c gate 183 176 182 0
176 -183 0
182 -183 0
-176 -182 183 0
c gate 184 61 118 0
61 -184 0
118 -184 0
-61 -118 184 0
c gate 185 124 -184 0
124 -185 0
-184 -185 0
-124 184 185 0
c gate 186 183 -185 0
183 -186 0
-185 -186 0
-183 185 186 0
c gate 187 -127 186 0
-127 -187 0
186 -187 0
127 -186 187 0
c gate 188 168 187 0
168 -188 0
187 -188 0
-168 -187 188 0
c gate 189 -166 -188 0
-166 -189 0
-188 -189 0
166 188 189 0
c gate 190 -104 -105 0
-104 -190 0
-105 -190 0
104 105 190 0
c gate 191 141 190 0
141 -191 0
190 -191 0
-141 -190 191 0
c gate 192 144 -191 0
144 -192 0
-191 -192 0
-144 191 192 0
c gate 193 100 -156 0
100 -193 0
-156 -193 0
-100 156 193 0
c gate 194 -148 -193 0
-148 -194 0
-193 -194 0
148 193 194 0
c gate 195 -149 -194 0
-149 -195 0
-194 -195 0
149 194 195 0
c gate 196 148 156 0
148 -196 0
156 -196 0
-148 -156 196 0
c gate 197 -195 -196 0
-195 -197 0
-196 -197 0
195 196 197 0
c gate 198 -192 197 0
-192 -198 0
197 -198 0
192 -197 198 0
c gate 199 163 198 0
163 -199 0
198 -199 0
-163 -198 199 0
c gate 200 189 199 0
189 -200 0
199 -200 0
-189 -199 200 0
c gate 201 -136 -140 0
-136 -201 0
-140 -201 0
136 140 201 0
c gate 202 -38 201 0
-38 -202 0
201 -202 0
38 -201 202 0
c gate 203 -106 -141 0
-106 -203 0
-141 -203 0
106 141 203 0
c gate 204 84 203 0
84 -204 0
203 -204 0
-84 -203 204 0
c gate 205 202 204 0
202 -205 0
204 -205 0
-202 -204 205 0
c gate 206 166 205 0
166 -206 0
205 -206 0
-166 -205 206 0
c gate 207 166 -206 0
166 -207 0
-206 -207 0
-166 206 207 0
c gate 208 199 -207 0
199 -208 0
-207 -208 0
-199 207 208 0
c gate 209 -103 154 0
-103 -209 0
154 -209 0
103 -154 209 0
c gate 210 -155 -209 0
-155 -210 0
-209 -210 0
155 209 210 0
c gate 211 -103 146 0
-103 -211 0
146 -211 0
103 -146 211 0
c gate 212 -147 -211 0
-147 -212 0
-211 -212 0
147 211 212 0
c gate 213 210 212 0
210 -213 0
212 -213 0
-210 -212 213 0
c gate 214 -210 -212 0
-210 -214 0
-212 -214 0
210 212 214 0
c gate 215 144 -190 0
144 -215 0
-190 -215 0
-144 190 215 0
c gate 216 -214 -215 0
-214 -216 0
-215 -216 0
214 215 216 0
c gate 217 -213 -216 0
-213 -217 0
-216 -217 0
213 216 217 0
c gate 218 -195 -217 0
-195 -218 0
-217 -218 0
195 217 218 0
c gate 219 -161 -218 0
-161 -219 0
-218 -219 0
161 218 219 0
c gate 220 -162 -219 0
-162 -220 0
-219 -220 0
162 219 220 0
c gate 221 -208 220 0
-208 -221 0
220 -221 0
208 -220 221 0
c gate 222 -200 -221 0
-200 -222 0
-221 -222 0
200 221 222 0
c gate 223 165 -222 0
165 -223 0
-222 -223 0
-165 222 223 0
c gate 224 94 -157 0
94 -224 0
-157 -224 0
-94 157 224 0
c gate 225 151 224 0
151 -225 0
224 -225 0
-151 -224 225 0
c gate 226 90 93 0
90 -226 0
93 -226 0
-90 -93 226 0
c gate 227 64 -67 0
64 -227 0
-67 -227 0
-64 67 227 0
c gate 228 -226 -227 0
-226 -228 0
-227 -228 0
226 227 228 0
c gate 229 -225 228 0
-225 -229 0
228 -229 0
225 -228 229 0
c gate 230 -165 229 0
-165 -230 0
229 -230 0
165 -229 230 0
c gate 231 -223 -230 0
-223 -231 0
-230 -231 0
223 230 231 0
c gate 232 86 -231 0
86 -232 0
-231 -232 0
-86 231 232 0
c gate 233 -85 -232 0
-85 -233 0
-232 -233 0
85 232 233 0
c gate 234 -36 -76 0
-36 -234 0
-76 -234 0
36 76 234 0
c gate 235 -201 -234 0
-201 -235 0
-234 -235 0
201 234 235 0
c gate 236 -100 -190 0
-100 -236 0
-190 -236 0
100 190 236 0
c gate 237 97 -203 0
97 -237 0
-203 -237 0
-97 203 237 0
c gate 238 -103 237 0
-103 -238 0
237 -238 0
103 -237 238 0
c gate 239 236 238 0
236 -239 0
238 -239 0
-236 -238 239 0
c gate 240 235 239 0
235 -240 0
239 -240 0
-235 -239 240 0
c gate 241 -37 -39 0
-37 -241 0
-39 -241 0
37 39 241 0
c gate 242 201 -241 0
201 -242 0
-241 -242 0
-201 241 242 0
c gate 243 201 234 0
201 -243 0
234 -243 0
-201 -234 243 0
c gate 244 -235 -243 0
-235 -244 0
-243 -244 0
235 243 244 0
c gate 245 -242 -244 0
-242 -245 0
-244 -245 0
242 244 245 0
c gate 246 -80 -233 0
-80 -246 0
-233 -246 0
80 233 246 0
c gate 247 -79 -246 0
-79 -247 0
-246 -247 0
79 246 247 0
c gate 248 -245 -247 0
-245 -248 0
-247 -248 0
245 247 248 0
c gate 249 -234 242 0
-234 -249 0
242 -249 0
234 -242 249 0
c gate 250 -235 -249 0
-235 -250 0
-249 -250 0
235 249 250 0
c gate 251 -248 250 0
-248 -251 0
250 -251 0
248 -250 251 0
c gate 252 -240 -251 0
-240 -252 0
-251 -252 0
240 251 252 0
c gate 253 -233 252 0
-233 -253 0
252 -253 0
233 -252 253 0
c gate 254 231 252 0
231 -254 0
252 -254 0
-231 -252 254 0
c gate 255 -187 -206 0
-187 -255 0
-206 -255 0
187 206 255 0
c gate 256 199 -255 0
199 -256 0
-255 -256 0
-199 255 256 0
c gate 257 220 -256 0
220 -257 0
-256 -257 0
-220 256 257 0
c gate 258 165 -257 0
165 -258 0
-257 -258 0
-165 257 258 0
c gate 259 229 -258 0
229 -259 0
-258 -259 0
-229 258 259 0
c gate 260 -252 259 0
-252 -260 0
259 -260 0
252 -259 260 0
c gate 261 -254 -260 0
-254 -261 0
-260 -261 0
254 260 261 0
c gate 262 86 -261 0
86 -262 0
-261 -262 0
-86 261 262 0
c gate 263 -85 -252 0
-85 -263 0
-252 -263 0
85 252 263 0
c gate 264 -262 263 0
-262 -264 0
263 -264 0
262 -263 264 0
c gate 265 -253 -264 0
-253 -265 0
-264 -265 0
253 264 265 0
c gate 266 81 -265 0
81 -266 0
-265 -266 0
-81 265 266 0
c gate 267 -81 265 0
-81 -267 0
265 -267 0
81 -265 267 0
c gate 268 -266 -267 0
-266 -268 0
-267 -268 0
266 267 268 0
c PO
268 0
